p cnf 18 28
-10 5 0
-10 6 0
10 -5 -6 0
-11 7 0
-11 8 0
11 -7 -8 0
-12 -10 0
-12 -11 0
12 10 11 0
-13 -9 0
-13 -12 0
13 9 12 0
-14 3 0
-14 4 0
14 -3 -4 0
-15 1 0
-15 2 0
15 -1 -2 0
-16 -14 0
-16 -15 0
16 14 15 0
-17 9 0
-17 -16 0
17 -9 16 0
-18 -13 0
-18 -17 0
18 13 17 0
-18 0
